NAME: tsp_68
COMMENT: Random TSP instance
TYPE: TSP
DIMENSION: 50
EDGE_WEIGHT_TYPE: EUC_2D
NODE_COORD_SECTION
1 883 693
2 597 83
3 512 765
4 286 328
5 484 638
6 17 400
7 713 901
8 225 514
9 661 119
10 483 990
11 530 493
12 293 915
13 878 32
14 392 328
15 324 770
16 409 615
17 134 283
18 487 527
19 371 500
20 545 258
21 394 755
22 332 32
23 460 443
24 618 481
25 867 206
26 957 563
27 107 16
28 189 511
29 433 232
30 278 642
31 825 285
32 304 992
33 974 745
34 180 610
35 535 686
36 941 52
37 799 428
38 205 191
39 161 848
40 355 330
41 863 535
42 21 925
43 66 925
44 376 888
45 602 229
46 529 31
47 389 123
48 150 78
49 173 523
50 451 583
